experiments/solvers_scalability/solutions/scalability/imx8a/IN_20_2.json-ILP-IDLE-MIN.out.log
Using license file /home/benedond/gurobi.lic
Using gurobi.env file
Set parameter Threads to value 1
Academic license - for non-commercial use only
Changed value of parameter TimeLimit to 300.0
   Prev: inf  Min: 0.0  Max: inf  Default: inf
Gurobi Optimizer version 9.0.1 build v9.0.1rc0 (linux64)
Optimize a model with 880 rows, 820 columns and 3258 nonzeros
Model fingerprint: 0x8c47783a
Variable types: 20 continuous, 800 integer (800 binary)
Coefficient statistics:
  Matrix range     [1e+00, 4e+02]
  Objective range  [4e+01, 4e+02]
  Bounds range     [1e+00, 1e+00]
  RHS range        [1e+00, 8e+02]
Presolve removed 556 rows and 535 columns
Presolve time: 0.17s
Presolved: 324 rows, 285 columns, 2212 nonzeros
Variable types: 17 continuous, 268 integer (268 binary)

Root relaxation: objective 1.015000e+03, 162 iterations, 0.00 seconds

    Nodes    |    Current Node    |     Objective Bounds      |     Work
 Expl Unexpl |  Obj  Depth IntInf | Incumbent    BestBd   Gap | It/Node Time

     0     0 1015.00000    0   38          - 1015.00000      -     -    0s
H    0     0                    1926.0000000 1015.00000  47.3%     -    0s
H    0     0                    1760.0000000 1015.00000  42.3%     -    0s
     0     0 1067.88756    0   43 1760.00000 1067.88756  39.3%     -    0s
H    0     0                    1624.0000000 1067.88756  34.2%     -    0s
     0     0 1070.31740    0   45 1624.00000 1070.31740  34.1%     -    0s
     0     0 1071.64210    0   46 1624.00000 1071.64210  34.0%     -    0s
     0     0 1071.64745    0   46 1624.00000 1071.64745  34.0%     -    0s
     0     0 1100.85963    0   45 1624.00000 1100.85963  32.2%     -    0s
     0     0 1106.28128    0   48 1624.00000 1106.28128  31.9%     -    0s
     0     0 1106.43012    0   51 1624.00000 1106.43012  31.9%     -    0s
     0     0 1106.58069    0   52 1624.00000 1106.58069  31.9%     -    0s
     0     0 1106.58069    0   53 1624.00000 1106.58069  31.9%     -    0s
     0     0 1117.48740    0   48 1624.00000 1117.48740  31.2%     -    0s
     0     0 1118.76560    0   51 1624.00000 1118.76560  31.1%     -    0s
     0     0 1119.15732    0   51 1624.00000 1119.15732  31.1%     -    0s
     0     0 1119.16816    0   51 1624.00000 1119.16816  31.1%     -    0s
     0     0 1122.32027    0   45 1624.00000 1122.32027  30.9%     -    0s
     0     0 1122.75514    0   47 1624.00000 1122.75514  30.9%     -    0s
     0     0 1124.31048    0   47 1624.00000 1124.31048  30.8%     -    0s
     0     0 1124.33116    0   47 1624.00000 1124.33116  30.8%     -    0s
     0     0 1126.91729    0   46 1624.00000 1126.91729  30.6%     -    0s
     0     0 1128.58253    0   47 1624.00000 1128.58253  30.5%     -    0s
     0     0 1128.59712    0   48 1624.00000 1128.59712  30.5%     -    0s
     0     0 1129.36178    0   46 1624.00000 1129.36178  30.5%     -    0s
     0     0 1129.99101    0   48 1624.00000 1129.99101  30.4%     -    0s
     0     0 1130.55194    0   47 1624.00000 1130.55194  30.4%     -    0s
     0     0 1130.57835    0   48 1624.00000 1130.57835  30.4%     -    0s
     0     0 1133.13287    0   49 1624.00000 1133.13287  30.2%     -    0s
     0     0 1133.84711    0   51 1624.00000 1133.84711  30.2%     -    0s
     0     0 1133.93020    0   50 1624.00000 1133.93020  30.2%     -    0s
     0     0 1133.93040    0   50 1624.00000 1133.93040  30.2%     -    0s
     0     0 1133.93040    0   50 1624.00000 1133.93040  30.2%     -    0s
     0     0 1133.93040    0   47 1624.00000 1133.93040  30.2%     -    0s
H    0     0                    1575.0000000 1158.80557  26.4%     -    0s
     0     2 1158.80557    0   46 1575.00000 1158.80557  26.4%     -    0s
H   27    20                    1543.0000000 1229.41645  20.3%  18.1    0s
*  580     3              20    1524.0000000 1513.29885  0.70%  12.7    0s

Cutting planes:
  Gomory: 2
  Cover: 25
  Implied bound: 1
  Clique: 10
  MIR: 42
  GUB cover: 9
  Zero half: 1
  Relax-and-lift: 17

Explored 584 nodes (8024 simplex iterations) in 0.75 seconds
Thread count was 1 (of 4 available processors)

Solution count 6: 1524 1543 1575 ... 1926

Optimal solution found (tolerance 1.00e-04)
Best objective 1.524000000000e+03, best bound 1.524000000000e+03, gap 0.0000%
